NAME : 10_3_3_2_(44).dat
COMMENT : Henke, Speranza, Wäscher, 2015
TYPE : MCVRP
DIMENSION : 11
EDGE_WEIGHT_TYPE : DISTANCE_MATRIX
CAPACITY : 1000
VEHICLES : 2
PRODUCT TYPES : 3
COMPARTMENTS : 3
NODE_COORD_SECTION
1 50 50
2 51.54 38.41
3 48.45 84.66
4 93.65 59.85
5 24.34 71.57
6 47.94 86.56
7 33.39 26.33
8 69.93 13.92
9 44.33 50.89
10 51.27 70.61
11 68.58 28.96
DEMAND_SECTION
1 0 0 0
2 13 0 29
3 146 0 8
4 16 0 39
5 52 0 5
6 109 0 41
7 226 108 0
8 68 91 0
9 0 64 70
10 0 34 27
11 0 82 32
DEPOT_SECTION
1
EOF